Sat 19 May 19:42:47 CEST 2018
CPXPARAM_TimeLimit                               45
CPXPARAM_Threads                                 1
CPXPARAM_MIP_Strategy_CallbackReducedLP          0
Tried aggregator 2 times.
MIP Presolve eliminated 7263 rows and 4896 columns.
MIP Presolve modified 483 coefficients.
Aggregator did 2351 substitutions.
Reduced MIP has 3433 rows, 4508 columns, and 12008 nonzeros.
Reduced MIP has 4498 binaries, 10 generals, 0 SOSs, and 1341 indicators.
Presolve time = 0.03 sec. (47.74 ticks)
Probing time = 0.14 sec. (113.00 ticks)
Cover probing fixed 0 vars, tightened 10 bounds.
Tried aggregator 3 times.
MIP Presolve modified 186 coefficients.
Aggregator did 1909 substitutions.
Reduced MIP has 1524 rows, 2599 columns, and 8190 nonzeros.
Reduced MIP has 2589 binaries, 10 generals, 0 SOSs, and 1341 indicators.
Presolve time = 0.01 sec. (21.51 ticks)
Probing time = 0.08 sec. (52.78 ticks)
Tried aggregator 1 time.
Reduced MIP has 1524 rows, 2599 columns, and 8190 nonzeros.
Reduced MIP has 2589 binaries, 10 generals, 0 SOSs, and 1341 indicators.
Presolve time = 0.01 sec. (9.54 ticks)
Probing time = 0.01 sec. (3.58 ticks)
Clique table members: 88911.
MIP emphasis: balance optimality and feasibility.
MIP search method: dynamic search.
Parallel mode: none, using 1 thread.
Root relaxation solution time = 0.00 sec. (4.46 ticks)

        Nodes                                         Cuts/
   Node  Left     Objective  IInf  Best Integer    Best Bound    ItCnt     Gap

      0     0        3.0000  1187                      3.0000      100         
      0     0        3.0000  1023                Cliques: 481      352         
      0     0        3.0000   881                Cliques: 481      689         
      0     0        3.0000   749                Cliques: 481      919         
      0     0        3.0000   623                Cliques: 481     1183         
      0     0        3.0000   486                Cliques: 481     1545         
      0     0        3.0000   340                Cliques: 481     1879         
      0     0        3.0000   282                Cliques: 481     2190         
      0     0        3.0000   148                Cliques: 481     2484         
      0     0        3.0000    55                Cliques: 481     2703         
      0     0        3.0000    46                   Cuts: 481     2938         
      0     0        3.0000    28                Impl Bds: 23     2941         
      0     0        3.0000    33                Impl Bds: 36     3002         
*     0+    0                            7.0000        3.0000            57.14%
*     0+    0                            3.0000        3.0000             0.00%
      0     0        cutoff              3.0000        3.0000     3002    0.00%
Elapsed time = 4.21 sec. (5107.41 ticks, tree = 0.01 MB, solutions = 2)

Clique cuts applied:  614
Implied bound cuts applied:  68

Root node processing (before b&c):
  Real time             =    4.21 sec. (5107.92 ticks)
Sequential b&c:
  Real time             =    0.00 sec. (0.00 ticks)
                          ------------
Total (root+branch&cut) =    4.21 sec. (5107.92 ticks)
   | W
 L | 0 1 2 3 4 5 6 7 8 9 10 
----------------------------
 0 | 9 9 9 7 7 7 3 1 8 8  8 
 1 | 9 9 9 7 7 7 5 4 8 8  8 
 2 | 9 9 9 7 7 7 2 6 8 8  8 
 3 | . . . . . . . . . .  . 
 4 | . . . . . . . . . .  . 
 5 | . . . . . . . . . .  . 
 6 | . . . . . . . . . .  . 
 7 | . . . . . . . . . .  . 
 8 | . . . . . . . . . .  . 
 9 | . . . . . . . . . .  . 
10 | . . . . . . . . . .  . 
11 | . . . . . . . . . .  . 
12 | . . . . . . . . . .  . 
13 | . . . . . . . . . .  . 
14 | . . . . . . . . . .  . 

Boxes' corners:      (w,l)
    Box 1 is at 
        top left     (7,0)
        bottom right (7,0)

    Box 2 is at 
        top left     (6,2)
        bottom right (6,2)

    Box 3 is at 
        top left     (6,0)
        bottom right (6,0)

    Box 4 is at 
        top left     (7,1)
        bottom right (7,1)

    Box 5 is at 
        top left     (6,1)
        bottom right (6,1)

    Box 6 is at 
        top left     (7,2)
        bottom right (7,2)

    Box 7 is at 
        top left     (3,0)
        bottom right (5,2)

    Box 8 is at 
        top left     (8,0)
        bottom right (10,2)

    Box 9 is at 
        top left     (0,0)
        bottom right (2,2)

    Roll length used: 3
In 4.27 seconds
